50

100 13 301
99 37 347
99 23 305
99 22 355
99 50 312
98 17 300
98 49 331
94 37 342
93 43 323
92 17 322
92 19 278
89 22 284
89 36 347
89 40 338
84 9 267
83 20 288
80 11 329
80 36 291
78 14 336
77 34 317
75 5 255
74 31 310
74 6 299
70 17 341
70 16 353
68 27 281
68 16 292
66 30 290
63 9 260
62 22 354
60 22 338
59 3 320
58 21 302
58 23 359
58 24 205
55 20 351
54 25 170
53 2 208
52 8 345
49 24 240
42 19 157
41 1 357
36 8 205
35 5 346
35 2 316
31 10 159
26 13 239
23 5 122
22 8 192
20 8 310
